31691.1
104 114 5 86 94 96 131 102 134 25 101 4 37 47 36 124 19 106 70 32 139 142 87 112 117 111 80 116 127 77 137 17 41 135 50 58 119 67 113 53 0 91 69 76 21 121 145 110 78 10 95 118 62 146 115 11 55 20 33 8 28 44 60 48 140 74 22 88 100 29 83 93 43 108 51 14 49 66 143 68 147 79 90 59 12 122 97 141 64 23 75 138 129 27 9 31 98 24 105 38 46 57 26 132 61 39 18 1 125 42 30 144 128 81 89 6 72 2 107 16 103 52 73 40 7 45 148 35 63 120 56 65 133 84 126 82 71 109 15 85 34 136 54 123 13 99 3 92 130 149 
